benchmarks/bfuzz0/3205277931388734919111067841973858.smt2
(set-logic QF_FP)
(declare-const x0 (_ FloatingPoint 8 24))
(declare-const x1 (_ FloatingPoint 8 24))
(declare-const x2 (_ FloatingPoint 8 24))
(declare-const x3 (_ FloatingPoint 8 24))
(declare-const x4 (_ FloatingPoint 8 24))
(declare-const x5 (_ FloatingPoint 8 24))
(assert (fp.eq (fp.div RNE (fp.mul RNE x5 x1) (fp.mul RNE x3 x5)) (fp.add RNE (fp.sub RNE x2 x4) (fp.neg x5))))
(assert (fp.eq (fp.sub RNE (fp.div RNE x1 x3) (fp.mul RNE x2 x1)) (fp.neg (fp.mul RNE x3 x4))))
(assert (fp.geq (fp.div RNE (fp.mul RNE x2 x5) (fp.mul RNE x5 x1)) (fp.add RNE (fp.add RNE x2 x2) (fp.sub RNE x4 x0))))
(assert (fp.geq (fp.div RNE (fp.div RNE x0 x5) (fp.add RNE x2 x4)) (fp.mul RNE (fp.div RNE x5 x0) (fp.neg x1))))
(check-sat)
