db/data/3205277931388734919111067841973858.z3.out
sat
-------------------
181.312696386
